c Circuit verification problem 04
c Logic gate verification
c Generated for SAT solver benchmarking
c Variables: 85, Clauses: 320
p cnf 85 320
1 2 3 0
-1 -2 0
-1 -3 0
-2 -3 0
4 5 6 0
-4 -5 0
-4 -6 0
-5 -6 0
7 8 9 0
-7 -8 0
-7 -9 0
-8 -9 0
10 11 12 0
-10 -11 0
-10 -12 0
-11 -12 0
13 14 15 0
-13 -14 0
-13 -15 0
-14 -15 0
16 17 18 0
-16 -17 0
-16 -18 0
-17 -18 0
19 20 21 0
-19 -20 0
-19 -21 0
-20 -21 0
22 23 24 0
-22 -23 0
-22 -24 0
-23 -24 0
25 26 27 0
-25 -26 0
-25 -27 0
-26 -27 0
28 29 30 0
-28 -29 0
-28 -30 0
-29 -30 0
31 32 33 0
-31 -32 0
-31 -33 0
-32 -33 0
34 35 36 0
-34 -35 0
-34 -36 0
-35 -36 0
37 38 39 0
-37 -38 0
-37 -39 0
-38 -39 0
40 41 42 0
-40 -41 0
-40 -42 0
-41 -42 0
43 44 45 0
-43 -44 0
-43 -45 0
-44 -45 0
46 47 48 0
-46 -47 0
-46 -48 0
-47 -48 0
49 50 51 0
-49 -50 0
-49 -51 0
-50 -51 0
52 53 54 0
-52 -53 0
-52 -54 0
-53 -54 0
55 56 57 0
-55 -56 0
-55 -57 0
-56 -57 0
58 59 60 0
-58 -59 0
-58 -60 0
-59 -60 0
61 62 63 0
-61 -62 0
-61 -63 0
-62 -63 0
64 65 66 0
-64 -65 0
-64 -66 0
-65 -66 0
67 68 69 0
-67 -68 0
-67 -69 0
-68 -69 0
70 71 72 0
-70 -71 0
-70 -72 0
-71 -72 0
73 74 75 0
-73 -74 0
-73 -75 0
-74 -75 0
76 77 78 0
-76 -77 0
-76 -78 0
-77 -78 0
79 80 81 0
-79 -80 0
-79 -81 0
-80 -81 0
82 83 84 0
-82 -83 0
-82 -84 0
-83 -84 0
1 4 7 0
2 5 8 0
3 6 9 0
10 13 16 0
11 14 17 0
12 15 18 0
19 22 25 0
20 23 26 0
21 24 27 0
28 31 34 0
29 32 35 0
30 33 36 0
37 40 43 0
38 41 44 0
39 42 45 0
46 49 52 0
47 50 53 0
48 51 54 0
55 58 61 0
56 59 62 0
57 60 63 0
64 67 70 0
65 68 71 0
66 69 72 0
73 76 79 0
74 77 80 0
75 78 81 0
82 1 10 0
83 4 13 0
84 7 16 0
85 19 28 0
-1 10 19 0
-4 13 22 0
-7 16 25 0
-10 -19 28 0
-13 -22 31 0
-16 -25 34 0
1 -10 -19 0
4 -13 -22 0
7 -16 -25 0
10 19 -28 0
13 22 -31 0
16 25 -34 0
37 46 55 0
40 49 58 0
43 52 61 0
46 55 64 0
49 58 67 0
52 61 70 0
55 64 73 0
58 67 76 0
61 70 79 0
-37 -46 0
-40 -49 0
-43 -52 0
-46 -55 0
-49 -58 0
-52 -61 0
-55 -64 0
-58 -67 0
-61 -70 0
-64 -73 0
-67 -76 0
-70 -79 0
1 37 73 0
2 38 74 0
3 39 75 0
4 40 76 0
5 41 77 0
6 42 78 0
7 43 79 0
8 44 80 0
9 45 81 0
10 46 82 0
11 47 83 0
12 48 84 0
13 49 85 0
-1 -37 0
-2 -38 0
-3 -39 0
-4 -40 0
-5 -41 0
-6 -42 0
-7 -43 0
-8 -44 0
-9 -45 0
-10 -46 0
-11 -47 0
-12 -48 0
-13 -49 0
14 50 0
15 51 0
17 53 0
18 54 0
20 56 0
21 57 0
23 59 0
24 60 0
26 62 0
27 63 0
29 65 0
30 66 0
32 68 0
33 69 0
35 71 0
36 72 0
-14 -50 0
-15 -51 0
-17 -53 0
-18 -54 0
-20 -56 0
-21 -57 0
-23 -59 0
-24 -60 0
-26 -62 0
-27 -63 0
-29 -65 0
-30 -66 0
-32 -68 0
-33 -69 0
-35 -71 0
-36 -72 0
1 14 29 44 0
2 15 30 45 0
3 16 31 46 0
4 17 32 47 0
5 18 33 48 0
6 19 34 49 0
7 20 35 50 0
8 21 36 51 0
9 22 37 52 0
10 23 38 53 0
11 24 39 54 0
12 25 40 55 0
13 26 41 56 0
-1 -14 -29 0
-2 -15 -30 0
-3 -16 -31 0
-4 -17 -32 0
-5 -18 -33 0
-6 -19 -34 0
-7 -20 -35 0
-8 -21 -36 0
-9 -22 -37 0
-10 -23 -38 0
-11 -24 -39 0
-12 -25 -40 0
-13 -26 -41 0
27 42 57 72 0
28 43 58 73 0
44 59 74 0
45 60 75 0
46 61 76 0
47 62 77 0
48 63 78 0
49 64 79 0
50 65 80 0
51 66 81 0
52 67 82 0
53 68 83 0
54 69 84 0
55 70 85 0
-27 -42 -57 0
-28 -43 -58 0
-44 -59 -74 0
-45 -60 -75 0
-46 -61 -76 0
-47 -62 -77 0
-48 -63 -78 0
-49 -64 -79 0
-50 -65 -80 0
-51 -66 -81 0
-52 -67 -82 0
-53 -68 -83 0
-54 -69 -84 0
-55 -70 -85 0
1 56 71 0
2 57 72 0
3 58 73 0
4 59 74 0
5 60 75 0
6 61 76 0
7 62 77 0
8 63 78 0
9 64 79 0
10 65 80 0
11 66 81 0
12 67 82 0
13 68 83 0
14 69 84 0
15 70 85 0